NAME : pr11.tsp
COMMENT : 11-city problem
TYPE : TSP 
DIMENSION : 11
EDGE_WEIGHT_TYPE : CEIL_2D
NODE_COORD_SECTION 
1  1.951600e+04 2.004300e+04 
2  2.781300e+04 7.191000e+03 
3  9.357100e+04 3.780000e+02 
4  5.205000e+03 8.145800e+04 
5  9.813000e+03 4.151600e+04 
6  8.743300e+04 7.657000e+04 
7  3.012000e+03 5.299000e+03 
8  2.111900e+04 2.009200e+04 
9  4.605000e+04 1.258600e+04 
10 9.136500e+04 6.511100e+04 
11 1.848400e+04 3.920600e+04 
EOF 
